Route #1: 2 48 38 9 16 34 32 19 15 49 17
Route #2: 13 46 26 22 50 12 23
Route #3: 4 45 14 39 24 31 3 28 11 21
Route #4: 37 5 8 27 10 44 47
Route #5: 29 51 7 43 33 35
Route #6: 1 18 30 20 42 40
Route #7: 36 6 25 41
Cost 749